1931.79
0 10 66 60 1 0
0 46 34 68 40 0
0 70 69 28 62 74 65 7 0
0 53 8 27 47 56 0
0 54 57 71 36 61 48 75 0
0 39 32 50 42 63 51 0
0 19 14 9 18 3 0
0 15 13 58 25 33 26 0
0 2 22 41 23 55 67 0
0 49 43 64 73 6 37 35 0
0 21 20 59 38 72 0
0 31 44 16 4 0
0 30 5 11 17 0
0 45 29 52 24 12 0
